Version identifier: 20.1.0.0 | 2020-11-10 | 9bedb6d68
CPXPARAM_Threads                                 1
CPXPARAM_TimeLimit                               7200
CPXPARAM_MIP_Tolerances_MIPGap                   0
Generic callback                                 0x60
1 of 1 MIP starts provided solutions.
MIP start 'm1' defined initial solution with objective 3216.0685.
Tried aggregator 1 time.
Reduced MIP has 800801 rows, 801001 columns, and 2401000 nonzeros.
Reduced MIP has 1000 binaries, 0 generals, 0 SOSs, and 0 indicators.
Presolve time = 0.82 sec. (759.66 ticks)
Probing time = 0.10 sec. (100.05 ticks)
Tried aggregator 1 time.
Reduced MIP has 800801 rows, 801001 columns, and 2401000 nonzeros.
Reduced MIP has 1000 binaries, 0 generals, 0 SOSs, and 0 indicators.
Presolve time = 0.81 sec. (746.68 ticks)
Probing time = 0.10 sec. (100.05 ticks)
MIP emphasis: balance optimality and feasibility.
MIP search method: dynamic search.
Parallel mode: none, using 1 thread.
Root relaxation solution time = 0.27 sec. (308.33 ticks)

        Nodes                                         Cuts/
   Node  Left     Objective  IInf  Best Integer    Best Bound    ItCnt     Gap

*     0+    0                         3216.0685     4368.0000            35.82%
      0     0     3301.8026    24     3216.0685     4368.0000        0   35.82%
      0     2     3301.8026    24     3216.0685     3301.8026        0    2.67%
Elapsed time = 1117.91 sec. (1238781.42 ticks, tree = 0.01 MB, solutions = 1)
      1     3     3238.7223    30     3216.0685     3301.8026   188126    2.67%

User cuts applied:  8

Root node processing (before b&c):
  Real time             = 1117.89 sec. (1238765.95 ticks)
Sequential b&c:
  Real time             = 6082.38 sec. (3878751.51 ticks)
                          ------------
Total (root+branch&cut) = 7200.27 sec. (5117517.45 ticks)
@Parameters: 
is_S_cut                                true
is_add_all_yinF                         true
is_start_value                          true
is_usercut                              true
is_visualization                        false
uc_only_rootnode                        false

data                                    Qi
fn                                      data/Qi/instance_800_1000.csv
mode                                    ZLP
solver                                  cplex

p                                       10
r                                       2

EPS                                     1.0e-06
EPS_vio                                 1.0e-04
beta                                    0.10
gap                                     0.00
nodelimit                               Inf
timelimit                               7200.00


@PrintInfos
ItCnt: 231397
Current gap: 2.67 %
Termination Status: TIME_LIMIT
Primal Status: FEASIBLE_POINT
Solve Time: 7200.28 sec
Objective Value: 3216.068478
Number of Nodes:      2

CutInfo: [phase] num / time (sec) 
ZLP             [phase1]     0 / 0.00 [rLC]     2 / 11.38 [rUC]     2 / 10.35 [sLC]     0 / 0.00 [sUC]     7 / 40.40 
OldSubmodular   [phase1]     0 / 0.00 [rLC]     0 / 0.00 [rUC]     0 / 0.00 [sLC]     0 / 0.00 [sUC]     0 / 0.00 
NewSubmodular   [phase1]     0 / 0.00 [rLC]     0 / 0.00 [rUC]     0 / 0.00 [sLC]     0 / 0.00 [sUC]     0 / 0.00 
PMP             [phase1]     0 / 0.00 [rLC]     3 / 7.98 [rUC]     2 / 7.73 [sLC]     0 / 0.00 [sUC]     9 / 28.93 
Separation Round: [phase1] 0  [rLC] 3  [rUC] 2  [sLC] 0  [sUC] 9
Root Best Bound 3301.802574
Root Best Integer: 3216.068478
Best Bound: 3301.802574
Best Integer: 3216.068478

